#模型基本设置
units			metal
boundary		p p p
atom_style		atomic
timestep		0.001
neighbor		2.0 bin
neigh_modify	delay 0 every 5 check yes
#设置Al棒区域
region 			Al cylinder y 0 0 20 0 50 units box
#设置cu棒区域
region			Cu cylinder y 0 0 20 65 115 units box
#合并两区域为box区域
region			box union 2 Al Cu
create_box		2 box
#填充Al原子
lattice			fcc 4.05
create_atoms	1 region Al
#填充Cu原子
lattice			fcc 3.61
create_atoms	2 region Cu
#设置摩尔质量
mass			1 27  #Al
mass			2 64  #Cu
#划分边界区域
region		left block INF INF INF 10 INF INF units box
region		right block INF INF 105 INF INF INF units box
group		left region left
group		right region right
group		boundary union left right
group		mobile subtract all boundary
#固定左右两侧边界
fix			01 boundary setforce 0 0 0
#立场设置
pair_style eam/alloy 
pair_coeff	* * al-cu-set.eam.alloy Al Cu
#保存模型文件
write_data		AlCu1.data
#热力学输出
thermo_modify lost ignore	
thermo			100
thermo_style	custom step temp pe ke 
#能量最小化
dump			1 all atom 10 mini.xyz
min_style		cg
minimize		1e-15 1e-15 5000 5000
undump			1
reset_timestep		0

#温度初始化
velocity		mobile create 300 789877 

#nvt系综下弛豫
thermo			100
thermo_style	custom step temp pe ke 
dump			1 all atom 100 equ.xyz
fix				1 all nvt temp 300 300 0.1
run				10000
undump			1
unfix			1
reset_timestep		0

#焊接过程，nve系综，焊接过程不控温
dump			1 all atom 100 weld1.xyz
fix				1 all nve
velocity        left set 0 2.5 0  units box
run				12000
undump			1
unfix			1
reset_timestep		0
velocity        left set 0 0 0  units box
#原子扩散
dump			1 all atom 100 weld2.xyz
fix				1 all nve
run				100000